* ENCODING=ISO-8859-1
NAME          CPLEX
ROWS
 N  obj1    
 G  c1      
 G  c2      
 G  c3      
 G  c4      
 G  c5      
 G  c6      
 G  c7      
 G  c8      
 G  c9      
 G  c10     
 G  c11     
 G  c12     
 G  c13     
 G  c14     
 G  c15     
 G  c16     
 G  c17     
 G  c18     
 G  c19     
 G  c20     
 G  c21     
 G  c22     
 G  c23     
 G  c24     
 G  c25     
 G  c26     
 G  c27     
 G  c28     
 G  c29     
 G  c30     
 G  c31     
 G  c32     
 G  c33     
 G  c34     
 G  c35     
COLUMNS
    MARK0000  'MARKER'                 'INTORG'
    x1        obj1                            1
    x1        c3                            401
    x1        c14                           482
    x1        c17                           611
    x1        c26                           741
    x2        obj1                            1
    x2        c5                            912
    x2        c10                           906
    x2        c14                           142
    x2        c15                           657
    x2        c31                           443
    x3        obj1                            1
    x3        c9                            296
    x3        c19                           967
    x3        c26                           120
    x4        obj1                            1
    x4        c12                           735
    x4        c34                           189
    x5        obj1                            1
    x5        c9                            628
    x5        c19                           526
    x5        c24                           214
    x6        obj1                            1
    x6        c5                            418
    x6        c6                            549
    x6        c9                            438
    x6        c13                           153
    x6        c23                           132
    x6        c28                           216
    x6        c33                           358
    x7        obj1                            1
    x7        c3                            436
    x7        c12                           208
    x7        c24                           791
    x7        c25                           151
    x7        c33                           958
    x8        obj1                            1
    x8        c3                            206
    x8        c34                           441
    x9        obj1                            1
    x9        c20                           119
    x10       obj1                            1
    x10       c2                            912
    x10       c10                           442
    x10       c12                           917
    x10       c30                           242
    x11       obj1                            1
    x11       c4                            714
    x11       c7                            939
    x11       c9                            278
    x11       c21                           372
    x11       c27                           215
    x11       c35                           925
    x12       obj1                            1
    x12       c3                            668
    x12       c7                            990
    x12       c19                           140
    x12       c27                           779
    x12       c30                           331
    x13       obj1                            1
    x13       c3                            965
    x13       c24                           797
    x13       c28                           608
    x13       c33                           310
    x14       obj1                            1
    x14       c2                            676
    x14       c3                            239
    x14       c9                            701
    x14       c13                           289
    x14       c23                           609
    x14       c28                           700
    x14       c32                           367
    x15       obj1                            1
    x15       c3                            139
    x15       c6                            495
    x15       c11                           668
    x15       c29                           375
    x16       obj1                            1
    x16       c7                            885
    x16       c9                            668
    x16       c22                           111
    x16       c26                           638
    x16       c29                           654
    x17       obj1                            1
    x17       c17                           450
    x17       c24                           721
    x18       obj1                            1
    x18       c32                           312
    x19       obj1                            1
    x20       obj1                            1
    x20       c10                           351
    x20       c20                           500
    x21       obj1                            1
    x21       c8                            592
    x22       obj1                            1
    x22       c16                           417
    x22       c35                           871
    x23       obj1                            1
    x23       c8                            120
    x23       c14                           627
    x23       c15                           417
    x23       c32                           740
    x24       obj1                            1
    x24       c9                            730
    x24       c11                           225
    x24       c12                           550
    x24       c19                           187
    x24       c29                           841
    x25       obj1                            1
    x25       c1                            502
    x25       c11                           123
    x25       c13                           317
    x25       c21                           367
    x25       c24                           958
    x25       c27                           193
    x25       c28                           665
    x25       c29                           266
    x26       obj1                            1
    x26       c7                            370
    x26       c23                           859
    x26       c30                           129
    x27       obj1                            1
    x27       c4                            805
    x27       c14                           399
    x27       c15                           356
    x27       c27                           388
    x27       c32                           371
    x28       obj1                            1
    x28       c19                           528
    x28       c30                           185
    x28       c34                           573
    x29       obj1                            1
    x29       c5                            742
    x29       c34                           455
    x30       obj1                            1
    x30       c11                           507
    x30       c20                           828
    x30       c27                           748
    x30       c35                           216
    x31       obj1                            1
    x31       c33                           366
    x32       obj1                            1
    x32       c1                            263
    x32       c13                           550
    x33       obj1                            1
    x33       c8                            333
    x33       c12                           702
    x34       obj1                            1
    x34       c16                           495
    x35       obj1                            1
    x35       c19                           276
    x35       c27                           748
    x35       c33                           881
    x36       obj1                            1
    x36       c1                            521
    x36       c6                            384
    x36       c8                            835
    x36       c14                           612
    x36       c23                           901
    x36       c26                           934
    x37       obj1                            1
    x38       obj1                            1
    x38       c2                            816
    x38       c16                           180
    x38       c31                           179
    x38       c32                           181
    x39       obj1                            1
    x39       c12                           742
    x39       c15                           482
    x39       c25                           342
    x39       c34                           871
    x40       obj1                            1
    x40       c18                           147
    x40       c20                           801
    x40       c27                           942
    x41       obj1                            1
    x41       c19                           203
    x42       obj1                            1
    x42       c12                           590
    x42       c13                           615
    x42       c22                           806
    x42       c28                           755
    x42       c30                           924
    x42       c33                           159
    x43       obj1                            1
    x43       c2                            916
    x43       c10                           261
    x43       c17                           666
    x43       c28                           396
    x44       obj1                            1
    x44       c5                            299
    x44       c33                           355
    x44       c35                           548
    x45       obj1                            1
    x45       c19                           550
    x46       obj1                            1
    x46       c13                           326
    x46       c28                           463
    x46       c30                           707
    x47       obj1                            1
    x47       c2                            291
    x47       c6                            833
    x47       c34                           740
    x48       obj1                            1
    x48       c6                            441
    x48       c13                           658
    x48       c21                           999
    x49       obj1                            1
    x49       c8                            388
    x49       c14                           468
    x50       obj1                            1
    x50       c12                           433
    x50       c33                           124
    x51       obj1                            1
    x51       c4                            765
    x51       c9                            248
    x51       c15                           565
    x51       c17                           744
    x51       c25                           334
    x52       obj1                            1
    x52       c9                            488
    x52       c24                           800
    x52       c26                           863
    x53       obj1                            1
    x53       c7                            475
    x53       c11                           347
    x53       c31                           847
    x54       obj1                            1
    x54       c5                            889
    x54       c18                           117
    x54       c22                           993
    x54       c29                           435
    x55       obj1                            1
    x55       c8                            483
    x55       c21                           357
    x55       c23                           285
    x55       c24                           254
    x55       c27                           762
    x55       c31                           846
    x55       c34                           359
    x56       obj1                            1
    x56       c18                           345
    x56       c22                           739
    x56       c35                           351
    x57       obj1                            1
    x57       c2                            722
    x57       c20                           852
    x57       c32                           872
    x58       obj1                            1
    x58       c11                           223
    x58       c32                           344
    x59       obj1                            1
    x59       c1                            595
    x59       c2                            874
    x59       c6                            888
    x59       c16                           778
    x59       c29                           609
    x59       c32                           174
    x60       obj1                            1
    x60       c15                           859
    x60       c26                           407
    x60       c28                           464
    x61       obj1                            1
    x61       c7                            666
    x61       c12                           200
    x61       c21                           939
    x61       c28                           338
    x62       obj1                            1
    x62       c1                            510
    x62       c5                            116
    x62       c7                            154
    x62       c11                           162
    x62       c16                           812
    x62       c32                           362
    x62       c34                           651
    x63       obj1                            1
    x63       c27                           516
    x64       obj1                            1
    x64       c9                            974
    x64       c17                           235
    x64       c32                           400
    x65       obj1                            1
    x65       c4                            876
    x65       c5                            464
    x65       c12                           165
    x65       c19                           822
    x65       c26                           732
    x65       c27                           270
    x66       obj1                            1
    x66       c4                            929
    x66       c5                            881
    x66       c14                           906
    x66       c20                           890
    x66       c23                           824
    x66       c26                           436
    x67       obj1                            1
    x67       c6                            416
    x67       c7                            456
    x67       c15                           262
    x67       c16                           361
    x67       c24                           509
    x68       obj1                            1
    x68       c13                           940
    x68       c16                           555
    x69       obj1                            1
    x69       c2                            447
    x69       c7                            535
    x69       c16                           301
    x69       c18                           352
    x69       c25                           522
    x69       c30                           423
    x70       obj1                            1
    MARK0001  'MARKER'                 'INTEND'
RHS
    rhs       c1                           1196
    rhs       c2                           2827
    rhs       c3                           1527
    rhs       c4                           2045
    rhs       c5                           2361
    rhs       c6                           2003
    rhs       c7                           2735
    rhs       c8                           1376
    rhs       c9                           2725
    rhs       c10                           980
    rhs       c11                          1128
    rhs       c12                          2621
    rhs       c13                          1924
    rhs       c14                          1818
    rhs       c15                          1799
    rhs       c16                          1950
    rhs       c17                          1353
    rhs       c18                           481
    rhs       c19                          2100
    rhs       c20                          1995
    rhs       c21                          1517
    rhs       c22                          1325
    rhs       c23                          1805
    rhs       c24                          2522
    rhs       c25                           675
    rhs       c26                          2436
    rhs       c27                          2781
    rhs       c28                          2303
    rhs       c29                          1590
    rhs       c30                          1471
    rhs       c31                          1158
    rhs       c32                          2062
    rhs       c33                          1756
    rhs       c34                          2140
    rhs       c35                          1456
BOUNDS
 LI bnd       x1        0
 LI bnd       x2        0
 LI bnd       x3        0
 LI bnd       x4        0
 LI bnd       x5        0
 LI bnd       x6        0
 LI bnd       x7        0
 LI bnd       x8        0
 LI bnd       x9        0
 LI bnd       x10       0
 LI bnd       x11       0
 LI bnd       x12       0
 LI bnd       x13       0
 LI bnd       x14       0
 LI bnd       x15       0
 LI bnd       x16       0
 LI bnd       x17       0
 LI bnd       x18       0
 LI bnd       x19       0
 LI bnd       x20       0
 LI bnd       x21       0
 LI bnd       x22       0
 LI bnd       x23       0
 LI bnd       x24       0
 LI bnd       x25       0
 LI bnd       x26       0
 LI bnd       x27       0
 LI bnd       x28       0
 LI bnd       x29       0
 LI bnd       x30       0
 LI bnd       x31       0
 LI bnd       x32       0
 LI bnd       x33       0
 LI bnd       x34       0
 LI bnd       x35       0
 LI bnd       x36       0
 LI bnd       x37       0
 LI bnd       x38       0
 LI bnd       x39       0
 LI bnd       x40       0
 LI bnd       x41       0
 LI bnd       x42       0
 LI bnd       x43       0
 LI bnd       x44       0
 LI bnd       x45       0
 LI bnd       x46       0
 LI bnd       x47       0
 LI bnd       x48       0
 LI bnd       x49       0
 LI bnd       x50       0
 LI bnd       x51       0
 LI bnd       x52       0
 LI bnd       x53       0
 LI bnd       x54       0
 LI bnd       x55       0
 LI bnd       x56       0
 LI bnd       x57       0
 LI bnd       x58       0
 LI bnd       x59       0
 LI bnd       x60       0
 LI bnd       x61       0
 LI bnd       x62       0
 LI bnd       x63       0
 LI bnd       x64       0
 LI bnd       x65       0
 LI bnd       x66       0
 LI bnd       x67       0
 LI bnd       x68       0
 LI bnd       x69       0
 LI bnd       x70       0
ENDATA
